Results/Experiment 1 Results/New Benchmark/RES_40/output_p1_0.75_p2_0.00_n_40_14.txt
solutions: 0 nodes: 0  modelTime: 138  solveTime: 9  totalTime: 152  modelSize: 7362  readTime: 5 matchingSize: 0
